nodes = 263;
edges = 567;
starts = [1, 1, 2, 2, 3, 4, 4, 4, 5, 6, 6, 7, 7, 7, 8, 8, 8, 9, 10, 10, 10, 11, 12, 12, 12, 13, 13, 13, 14, 14, 14, 15, 16, 17, 17, 17, 18, 19, 20, 20, 20, 21, 21, 22, 23, 23, 23, 24, 24, 25, 25, 26, 27, 27, 27, 28, 29, 29, 30, 30, 30, 31, 31, 31, 32, 33, 33, 34, 34, 34, 35, 35, 36, 36, 37, 37, 38, 38, 39, 39, 40, 40, 41, 41, 41, 42, 42, 42, 43, 43, 43, 44, 45, 45, 46, 46, 47, 47, 48, 48, 48, 49, 49, 50, 50, 50, 51, 52, 52, 53, 54, 54, 54, 55, 56, 56, 57, 57, 58, 59, 59, 60, 61, 61, 62, 63, 63, 63, 64, 64, 65, 65, 65, 66, 66, 67, 67, 67, 67, 68, 68, 68, 69, 69, 69, 70, 70, 71, 71, 71, 72, 73, 74, 75, 75, 75, 76, 77, 77, 78, 78, 79, 79, 80, 81, 82, 82, 83, 84, 84, 84, 85, 85, 86, 87, 87, 87, 88, 89, 90, 91, 92, 92, 93, 94, 94, 94, 95, 95, 96, 96, 97, 98, 99, 99, 99, 100, 100, 100, 100, 101, 101, 101, 102, 102, 102, 103, 104, 104, 105, 106, 106, 107, 107, 107, 108, 108, 108, 109, 110, 110, 110, 111, 111, 112, 112, 113, 114, 114, 115, 115, 115, 116, 116, 116, 117, 118, 118, 118, 119, 119, 119, 120, 120, 120, 121, 121, 122, 122, 122, 123, 123, 124, 124, 125, 125, 125, 126, 127, 127, 127, 128, 128, 128, 128, 129, 129, 129, 130, 130, 130, 131, 132, 132, 133, 133, 134, 134, 134, 135, 135, 136, 136, 137, 138, 139, 139, 139, 140, 140, 140, 141, 142, 142, 143, 144, 144, 145, 146, 147, 147, 147, 148, 148, 148, 149, 149, 149, 150, 150, 150, 151, 151, 152, 152, 152, 153, 153, 153, 154, 154, 155, 155, 155, 156, 157, 157, 158, 158, 159, 160, 161, 162, 162, 162, 163, 164, 164, 164, 165, 165, 165, 166, 166, 166, 167, 167, 168, 168, 168, 169, 169, 169, 170, 170, 170, 171, 171, 172, 172, 173, 174, 174, 174, 175, 175, 175, 176, 176, 177, 177, 178, 178, 179, 179, 180, 180, 180, 181, 181, 181, 182, 182, 183, 183, 184, 185, 185, 185, 186, 186, 187, 187, 187, 188, 189, 189, 190, 190, 190, 191, 192, 192, 193, 193, 193, 194, 195, 195, 196, 197, 197, 197, 198, 198, 198, 199, 200, 201, 201, 202, 202, 202, 203, 203, 203, 204, 204, 204, 205, 205, 205, 206, 206, 206, 207, 208, 208, 209, 209, 209, 210, 210, 210, 211, 211, 212, 212, 212, 213, 213, 213, 214, 214, 214, 215, 216, 216, 216, 217, 217, 217, 218, 218, 219, 219, 220, 220, 220, 221, 221, 221, 222, 222, 223, 223, 223, 224, 224, 224, 225, 225, 226, 226, 227, 227, 227, 228, 228, 228, 229, 229, 229, 230, 230, 231, 231, 231, 232, 233, 233, 233, 234, 235, 235, 235, 236, 236, 236, 237, 238, 239, 239, 240, 241, 241, 242, 242, 242, 243, 243, 243, 243, 244, 244, 244, 245, 245, 246, 246, 246, 247, 248, 248, 249, 249, 249, 250, 250, 250, 251, 251, 251, 252, 253, 254, 254, 254, 255, 256, 257, 257, 257, 258, 259, 259, 259, 260, 260, 261, 261, 262, 262, 262, 263, 263, 263];
ends = [153, 256, 24, 223, 197, 8, 166, 168, 56, 101, 121, 36, 232, 233, 4, 24, 149, 243, 140, 169, 254, 58, 176, 182, 200, 30, 31, 90, 23, 37, 243, 16, 82, 203, 229, 244, 209, 5, 146, 181, 229, 11, 81, 139, 14, 65, 214, 8, 223, 86, 257, 61, 15, 134, 211, 42, 169, 186, 13, 31, 201, 13, 30, 216, 204, 70, 234, 60, 63, 84, 86, 257, 7, 231, 14, 192, 75, 106, 38, 106, 55, 210, 67, 129, 165, 28, 43, 69, 42, 44, 69, 43, 48, 200, 141, 157, 73, 261, 176, 184, 220, 76, 135, 71, 87, 202, 134, 73, 261, 52, 117, 118, 259, 40, 21, 58, 143, 159, 19, 57, 245, 34, 59, 135, 150, 34, 68, 125, 64, 224, 23, 115, 263, 97, 132, 41, 130, 164, 230, 63, 94, 125, 42, 43, 96, 33, 47, 104, 122, 162, 257, 144, 140, 38, 93, 102, 111, 79, 187, 132, 169, 77, 152, 45, 27, 91, 260, 236, 34, 105, 190, 92, 119, 208, 50, 202, 223, 125, 80, 13, 239, 35, 39, 25, 68, 180, 203, 89, 96, 69, 89, 66, 244, 127, 242, 262, 116, 168, 236, 242, 6, 120, 210, 75, 153, 220, 250, 122, 262, 84, 85, 154, 126, 151, 235, 152, 155, 217, 189, 26, 112, 255, 145, 191, 26, 111, 255, 218, 219, 65, 130, 187, 100, 166, 242, 54, 54, 217, 227, 2, 124, 149, 101, 206, 214, 206, 209, 50, 71, 248, 123, 128, 92, 119, 63, 68, 88, 107, 99, 193, 259, 123, 165, 221, 251, 41, 164, 251, 67, 115, 193, 140, 66, 78, 133, 224, 27, 51, 225, 59, 143, 177, 178, 11, 136, 22, 193, 221, 10, 74, 131, 157, 49, 161, 231, 52, 53, 171, 20, 149, 163, 203, 7, 91, 142, 8, 119, 147, 62, 180, 190, 107, 167, 79, 108, 155, 1, 95, 102, 29, 186, 108, 152, 227, 195, 241, 245, 175, 205, 36, 217, 76, 71, 202, 262, 147, 67, 129, 218, 41, 128, 188, 4, 116, 168, 151, 227, 4, 100, 166, 10, 29, 78, 174, 194, 233, 112, 113, 85, 154, 209, 170, 185, 194, 158, 201, 216, 48, 200, 138, 172, 177, 189, 75, 220, 94, 150, 253, 20, 213, 236, 12, 184, 142, 161, 179, 174, 198, 207, 138, 172, 77, 115, 224, 165, 109, 178, 84, 150, 252, 145, 37, 243, 127, 130, 139, 207, 156, 210, 263, 3, 249, 254, 185, 212, 215, 249, 12, 30, 175, 50, 87, 162, 17, 94, 147, 32, 214, 243, 158, 216, 263, 120, 121, 240, 215, 16, 211, 18, 121, 173, 40, 101, 195, 27, 137, 198, 228, 237, 181, 229, 250, 23, 120, 204, 237, 31, 175, 205, 108, 118, 160, 114, 164, 114, 230, 48, 80, 102, 128, 139, 222, 221, 251, 2, 87, 124, 64, 133, 187, 15, 134, 33, 47, 118, 155, 167, 212, 246, 247, 17, 20, 213, 67, 219, 49, 135, 148, 233, 7, 148, 170, 70, 107, 238, 259, 83, 100, 181, 247, 235, 93, 153, 206, 57, 159, 99, 100, 116, 9, 14, 192, 204, 17, 98, 250, 46, 226, 228, 256, 258, 258, 248, 122, 197, 199, 254, 103, 213, 244, 128, 129, 222, 190, 180, 10, 197, 249, 110, 246, 35, 39, 72, 1, 54, 127, 235, 148, 183, 46, 226, 99, 104, 162, 65, 196, 205];
weights = [1, 1, 1, 1, 1, 1, 1, 1, 1, 1, 1, 1, 1, 1, 1, 1, 1, 1, 1, 1, 1, 1, 1, 1, 1, 1, 1, 1, 1, 1, 1, 1, 1, 1, 1, 1, 1, 1, 1, 1, 1, 1, 1, 1, 1, 1, 1, 1, 1, 1, 1, 1, 1, 1, 1, 1, 1, 1, 1, 1, 1, 1, 1, 1, 1, 1, 1, 1, 1, 1, 1, 1, 1, 1, 1, 1, 1, 1, 1, 1, 1, 1, 1, 1, 1, 1, 1, 1, 1, 1, 1, 1, 1, 1, 1, 1, 1, 1, 1, 1, 1, 1, 1, 1, 1, 1, 1, 1, 1, 1, 1, 1, 1, 1, 1, 1, 1, 1, 1, 1, 1, 1, 1, 1, 1, 1, 1, 1, 1, 1, 1, 1, 1, 1, 1, 1, 1, 1, 1, 1, 1, 1, 1, 1, 1, 1, 1, 1, 1, 1, 1, 1, 1, 1, 1, 1, 1, 1, 1, 1, 1, 1, 1, 1, 1, 1, 1, 1, 1, 1, 1, 1, 1, 1, 1, 1, 1, 1, 1, 1, 1, 1, 1, 1, 1, 1, 1, 1, 1, 1, 1, 1, 1, 1, 1, 1, 1, 1, 1, 1, 1, 1, 1, 1, 1, 1, 1, 1, 1, 1, 1, 1, 1, 1, 1, 1, 1, 1, 1, 1, 1, 1, 1, 1, 1, 1, 1, 1, 1, 1, 1, 1, 1, 1, 1, 1, 1, 1, 1, 1, 1, 1, 1, 1, 1, 1, 1, 1, 1, 1, 1, 1, 1, 1, 1, 1, 1, 1, 1, 1, 1, 1, 1, 1, 1, 1, 1, 1, 1, 1, 1, 1, 1, 1, 1, 1, 1, 1, 1, 1, 1, 1, 1, 1, 1, 1, 1, 1, 1, 1, 1, 1, 1, 1, 1, 1, 1, 1, 1, 1, 1, 1, 1, 1, 1, 1, 1, 1, 1, 1, 1, 1, 1, 1, 1, 1, 1, 1, 1, 1, 1, 1, 1, 1, 1, 1, 1, 1, 1, 1, 1, 1, 1, 1, 1, 1, 1, 1, 1, 1, 1, 1, 1, 1, 1, 1, 1, 1, 1, 1, 1, 1, 1, 1, 1, 1, 1, 1, 1, 1, 1, 1, 1, 1, 1, 1, 1, 1, 1, 1, 1, 1, 1, 1, 1, 1, 1, 1, 1, 1, 1, 1, 1, 1, 1, 1, 1, 1, 1, 1, 1, 1, 1, 1, 1, 1, 1, 1, 1, 1, 1, 1, 1, 1, 1, 1, 1, 1, 1, 1, 1, 1, 1, 1, 1, 1, 1, 1, 1, 1, 1, 1, 1, 1, 1, 1, 1, 1, 1, 1, 1, 1, 1, 1, 1, 1, 1, 1, 1, 1, 1, 1, 1, 1, 1, 1, 1, 1, 1, 1, 1, 1, 1, 1, 1, 1, 1, 1, 1, 1, 1, 1, 1, 1, 1, 1, 1, 1, 1, 1, 1, 1, 1, 1, 1, 1, 1, 1, 1, 1, 1, 1, 1, 1, 1, 1, 1, 1, 1, 1, 1, 1, 1, 1, 1, 1, 1, 1, 1, 1, 1, 1, 1, 1, 1, 1, 1, 1, 1, 1, 1, 1, 1, 1, 1, 1, 1, 1, 1, 1, 1, 1, 1, 1, 1, 1, 1, 1, 1, 1, 1, 1, 1, 1, 1, 1, 1, 1, 1, 1, 1, 1, 1, 1, 1, 1, 1, 1, 1, 1, 1, 1, 1, 1, 1, 1, 1, 1, 1, 1, 1, 1, 1, 1, 1, 1, 1];
start = 19;
end= 164;
p = [0, 0, 0, 0, 0, 0, 0, 0, 0, 14, 0, 26, 0, 0, 0, 0, 0, 0, 0, 0, 0, 0, 0, 0, 0, 17, 0, 0, 0, 0, 0, 0, 0, 0, 0, 0, 0, 0, 0, 0, 0, 0, 0, 0, 0, 22, 26, 5, 0, 9, 0, 0, 0, 0, 0, 0, 0, 17, 0, 0, 20, 0, 0, 0, 0, 0, 0, 14, 0, 0, 0, 0, 1, 0, 0, 0, 0, 0, 0, 0, 0, 0, 0, 0, 0, 0, 0, 0, 0, 0, 0, 0, 25, 0, 0, 0, 0, 0, 0, 0, 0, 0, 0, 0, 0, 0, 0, 0, 0, 0, 0, 8, 0, 15, 0, 0, 27, 0, 0, 0, 0, 0, 0, 0, 0, 0, 0, 0, 11, 0, 0, 0, 0, 22, 0, 0, 0, 0, 0, 0, 18, 0, 0, 0, 0, 0, 0, 0, 0, 0, 0, 0, 0, 12, 0, 0, 0, 0, 0, 0, 0, 0, 0, 0, 0, 25, 11, 11, 0, 20, 0, 0, 0, 0, 0, 0, 11, 0, 8, 0, 0, 0, 8, 0, 0, 0, 0, 0, 0, 0, 0, 0, 0, 0, 16, 0, 0, 0, 0, 0, 0, 0, 12, 0, 0, 0, 0, 0, 0, 0, 0, 0, 0, 0, 0, 0, 0, 0, 0, 0, 0, 0, 0, 0, 0, 23, 0, 0, 0, 0, 0, 10, 15, 0, 0, 0, 0, 0, 10, 0, 0, 0, 0, 0, 0, 34, 14, 0, 0, 0, 0, 0, 0, 0, 0, 0, 0, 0, 0, 13, 0, 0, 0];
